d1 = 1;
d2 = 1;
c1 = 20000000;
c2 = 20000000;
c3 = 20000000;

Nodes = array1d(1..16,[1,2,3,4,5,6,7,8,9,10,11,12,13,14,15,16]);

Link_info = array2d(1..48, 1..4,
[
  %n1   n2   d    c    e_num   ( d:distance  c:capacity )
   1,   2,  d1,  c3,    %1
   1,   5,  d1,  c3,    %2
   2,   1,  d1,  c3,    %3
   2,   3,  d1,  c2,    %4
   2,   6,  d1,  c2,    %5
   3,   2,  d1,  c2,    %6
   3,   4,  d1,  c3,    %7
   3,   7,  d1,  c2,    %8
   4,   3,  d1,  c3,    %9
   4,   8,  d1,  c3,    %10
   5,   1,  d1,  c3,    %11
   5,   6,  d1,  c2,    %12
   5,   9,  d1,  c2,    %13
   6,   2,  d1,  c2,    %14
   6,   5,  d1,  c2,    %15
   6,   7,  d1,  c1,    %16
   6,  10,  d1,  c1,    %17
   7,   3,  d1,  c2,    %18
   7,   6,  d1,  c1,    %19
   7,   8,  d1,  c2,    %20
   7,  11,  d1,  c1,    %21
   8,   4,  d1,  c3,    %22
   8,   7,  d1,  c2,    %23
   8,  12,  d1,  c2,    %24
   9,   5,  d1,  c2,    %25
   9,  10,  d1,  c2,    %26
   9,  13,  d1,  c3,    %27
   10,  6,  d1,  c1,    %28
   10,  9,  d1,  c2,    %29
   10, 11,  d1,  c1,    %30
   10, 14,  d1,  c2,    %31
   11,  7,  d1,  c1,    %32
   11, 10,  d1,  c1,    %33
   11, 12,  d1,  c2,    %34
   11, 15,  d1,  c2,    %35
   12,  8,  d1,  c2,    %36
   12, 11,  d1,  c2,    %37
   12, 16,  d1,  c3,    %38
   13,  9,  d1,  c3,    %39
   13, 14,  d1,  c3,    %40
   14, 10,  d1,  c2,    %41
   14, 13,  d1,  c3,    %42
   14, 15,  d1,  c2,    %43
   15, 11,  d1,  c2,    %44
   15, 14,  d1,  c2,    %45
   15, 16,  d1,  c3,    %46
   16, 12,  d1,  c3,    %47
   16, 15,  d1,  c3    %48
]);

% uncomment only if used in the model file
% Limits = [10,10];
Flow_demands = [10, 20];
s = [1,1];
t =[16,16];


